Maximize
  1 hco3_e + 1 2hatvlac_c
Subject To
  1 2hatvlac_c + 1 hco3_e - 1 hco3_c - 1 2hatvlac_e = 2000
Bounds
  2hatvlac_c <= 1000
  hco3_c <= 300
  2hatvlac_e <= 430
  hco3_e <= 460
Integers
  2hatvlac_e hco3_e hco3_c 2hatvlac_c
End
